Cars = 1..200;
Options = 1..5;
Classes = 1..26;
sequenceMinCapacity = [0, 0, 0, 0, 0];
sequenceMaxCapacity = [1, 2, 1, 2, 1];
sequenceSize = [2, 3, 3, 5, 5];
numOrdered = [5, 22, 12, 3, 3, 3, 2, 7, 2, 1, 9, 5, 6, 19, 1, 12, 2, 3, 4, 14, 8, 3, 34, 15, 3, 2];
classHasOption = [| true,  true,  true, false, false
                  | true, false, false, false, false
                  | true, false, false,  true, false
                  |false,  true, false,  true,  true
                  |false, false, false,  true,  true
                  |false,  true,  true,  true, false
                  | true, false,  true, false,  true
                  |false,  true, false, false,  true
                  | true, false,  true,  true, false
                  | true, false, false, false,  true
                  |false, false, false,  true, false
                  | true, false,  true, false, false
                  |false, false,  true,  true, false
                  | true,  true, false, false, false
                  | true,  true,  true,  true, false
                  |false,  true,  true, false, false
                  |false,  true,  true, false,  true
                  |false, false, false, false,  true
                  | true,  true, false, false,  true
                  |false, false,  true, false, false
                  | true,  true, false,  true, false
                  |false, false,  true, false,  true
                  |false,  true, false, false, false
                  |false,  true, false,  true, false
                  | true, false, false,  true,  true
                  | true,  true, false, false,  true|];
optionOrdering = [1, 3, 5, 4, 2];
